p cnf 50 550
1 -50 -48 0
1 -50 -32 0
1 -50 -29 0
1 -50 -28 0
1 -50 -27 0
1 -50 -17 0
1 -50 1 0
1 -50 21 0
1 -50 31 0
1 -50 38 0
1 -50 48 0
1 -49 -47 0
1 -49 -35 0
1 -49 -29 0
1 -49 -26 0
1 -49 -24 0
1 -49 -22 0
1 -49 -6 0
1 -49 6 0
1 -49 8 0
1 -49 9 0
1 -49 17 0
1 -48 -42 0
1 -48 -25 0
1 -48 -14 0
1 -48 4 0
1 -48 7 0
1 -48 17 0
1 -48 25 0
1 -48 34 0
1 -48 37 0
1 -48 43 0
1 -47 -31 0
1 -47 -30 0
1 -47 -4 0
1 -47 12 0
1 -47 14 0
1 -47 24 0
1 -47 25 0
1 -47 27 0
1 -47 41 0
1 -47 45 0
1 -46 -36 0
1 -46 -30 0
1 -46 -28 0
1 -46 -11 0
1 -46 -5 0
1 -46 7 0
1 -46 10 0
1 -46 11 0
1 -46 13 0
1 -46 29 0
1 -46 40 0
1 -45 -35 0
1 -45 -31 0
1 -45 -24 0
1 -45 -10 0
1 -45 1 0
1 -45 2 0
1 -45 8 0
1 -45 14 0
1 -45 39 0
1 -45 43 0
1 -45 46 0
1 -44 -40 0
1 -44 -11 0
1 -44 -6 0
1 -44 15 0
1 -44 24 0
1 -44 27 0
1 -44 35 0
1 -44 40 0
1 -44 42 0
1 -44 45 0
1 -44 50 0
1 -43 -39 0
1 -43 -7 0
1 -43 1 0
1 -43 18 0
1 -43 23 0
1 -43 28 0
1 -43 33 0
1 -43 38 0
1 -43 39 0
1 -43 46 0
1 -43 47 0
1 -42 -41 0
1 -42 -37 0
1 -42 -21 0
1 -42 -14 0
1 -42 8 0
1 -42 26 0
1 -42 27 0
1 -42 34 0
1 -42 40 0
1 -42 44 0
1 -41 -40 0
1 -41 -37 0
1 -41 -35 0
1 -41 -28 0
1 -41 -22 0
1 -41 -21 0
1 -41 -15 0
1 -41 -12 0
1 -41 13 0
1 -41 16 0
1 -40 -39 0
1 -40 16 0
1 -40 20 0
1 -40 21 0
1 -40 28 0
1 -40 31 0
1 -40 32 0
1 -40 35 0
1 -40 50 0
1 -39 -33 0
1 -39 -25 0
1 -39 -16 0
1 -39 -15 0
1 -39 -14 0
1 -39 7 0
1 -39 9 0
1 -39 24 0
1 -39 33 0
1 -38 -35 0
1 -38 -29 0
1 -38 -20 0
1 -38 -13 0
1 -38 -12 0
1 -38 8 0
1 -38 10 0
1 -38 12 0
1 -38 24 0
1 -38 37 0
1 -38 41 0
1 -37 -13 0
1 -37 -12 0
1 -37 -7 0
1 -37 -6 0
1 -37 3 0
1 -37 14 0
1 -37 15 0
1 -37 17 0
1 -37 27 0
1 -36 -14 0
1 -36 -5 0
1 -36 10 0
1 -36 15 0
1 -36 16 0
1 -36 32 0
1 -36 41 0
1 -36 42 0
1 -36 45 0
1 -36 50 0
1 -35 -34 0
1 -35 -32 0
1 -35 15 0
1 -35 21 0
1 -35 24 0
1 -35 29 0
1 -35 42 0
1 -34 -29 0
1 -34 3 0
1 -34 8 0
1 -34 19 0
1 -34 22 0
1 -34 26 0
1 -34 35 0
1 -34 39 0
1 -34 44 0
1 -34 48 0
1 -33 -32 0
1 -33 -31 0
1 -33 -12 0
1 -33 -5 0
1 -33 -4 0
1 -33 4 0
1 -33 16 0
1 -33 24 0
1 -33 32 0
1 -33 35 0
1 -32 -26 0
1 -32 -23 0
1 -32 -1 0
1 -32 3 0
1 -32 16 0
1 -32 25 0
1 -32 30 0
1 -32 36 0
1 -31 -23 0
1 -31 -3 0
1 -31 9 0
1 -31 20 0
1 -31 34 0
1 -31 42 0
1 -31 44 0
1 -31 48 0
1 -30 -23 0
1 -30 -17 0
1 -30 -13 0
1 -30 -9 0
1 -30 3 0
1 -30 31 0
1 -30 38 0
1 -30 40 0
1 -30 49 0
1 -29 -28 0
1 -29 -27 0
1 -29 1 0
1 -29 13 0
1 -29 32 0
1 -29 34 0
1 -29 42 0
1 -28 -26 0
1 -28 -11 0
1 -28 -6 0
1 -28 -3 0
1 -28 22 0
1 -28 41 0
1 -28 42 0
1 -27 -24 0
1 -27 -20 0
1 -27 -13 0
1 -27 -3 0
1 -27 5 0
1 -27 12 0
1 -27 39 0
1 -27 43 0
1 -27 47 0
1 -26 -22 0
1 -26 -12 0
1 -26 -10 0
1 -26 -7 0
1 -26 29 0
1 -26 38 0
1 -26 39 0
1 -26 41 0
1 -25 -24 0
1 -25 -20 0
1 -25 -14 0
1 -25 -13 0
1 -25 -12 0
1 -25 -2 0
1 -25 33 0
1 -25 35 0
1 -25 39 0
1 -24 -18 0
1 -24 -6 0
1 -24 1 0
1 -24 11 0
1 -24 39 0
1 -24 44 0
1 -24 46 0
1 -23 -19 0
1 -23 -9 0
1 -23 10 0
1 -23 16 0
1 -23 31 0
1 -23 33 0
1 -23 36 0
1 -23 37 0
1 -22 -21 0
1 -22 -4 0
1 -22 -1 0
1 -22 17 0
1 -22 18 0
1 -22 27 0
1 -22 42 0
1 -22 44 0
1 -21 -14 0
1 -21 -6 0
1 -21 -5 0
1 -21 10 0
1 -21 29 0
1 -21 32 0
1 -21 44 0
1 -21 45 0
1 -20 -10 0
1 -20 -8 0
1 -20 2 0
1 -20 5 0
1 -20 15 0
1 -20 25 0
1 -20 27 0
1 -20 49 0
1 -19 -18 0
1 -19 -8 0
1 -19 -7 0
1 -19 1 0
1 -19 7 0
1 -19 13 0
1 -19 16 0
1 -19 25 0
1 -19 32 0
1 -19 46 0
1 -18 -17 0
1 -18 -12 0
1 -18 -5 0
1 -18 7 0
1 -18 12 0
1 -18 17 0
1 -18 26 0
1 -18 36 0
1 -18 49 0
1 -17 -14 0
1 -17 -2 0
1 -17 -1 0
1 -17 21 0
1 -17 23 0
1 -17 24 0
1 -17 28 0
1 -17 48 0
1 -16 -10 0
1 -16 -6 0
1 -16 5 0
1 -16 15 0
1 -16 19 0
1 -16 21 0
1 -16 28 0
1 -16 41 0
1 -16 46 0
1 -16 47 0
1 -15 -14 0
1 -15 -9 0
1 -15 -5 0
1 -15 -4 0
1 -15 4 0
1 -15 6 0
1 -15 7 0
1 -15 47 0
1 -15 49 0
1 -14 -6 0
1 -14 8 0
1 -14 15 0
1 -13 -2 0
1 -13 -1 0
1 -13 3 0
1 -13 7 0
1 -13 9 0
1 -13 31 0
1 -12 1 0
1 -12 8 0
1 -12 14 0
1 -12 26 0
1 -11 -9 0
1 -11 -6 0
1 -11 -1 0
1 -11 10 0
1 -11 14 0
1 -11 28 0
1 -11 35 0
1 -11 49 0
1 -10 4 0
1 -10 11 0
1 -10 15 0
1 -10 17 0
1 -10 26 0
1 -10 33 0
1 -10 36 0
1 -9 5 0
1 -9 11 0
1 -9 13 0
1 -9 26 0
1 -9 29 0
1 -9 34 0
1 -9 50 0
1 -8 -2 0
1 -8 14 0
1 -8 20 0
1 -8 26 0
1 -8 30 0
1 -8 33 0
1 -8 34 0
1 -8 48 0
1 -8 49 0
1 -7 2 0
1 -7 6 0
1 -7 9 0
1 -7 10 0
1 -7 15 0
1 -7 30 0
1 -7 36 0
1 -6 4 0
1 -6 25 0
1 -5 -3 0
1 -5 2 0
1 -5 9 0
1 -5 19 0
1 -5 32 0
1 -4 3 0
1 -4 12 0
1 -4 18 0
1 -4 30 0
1 -4 35 0
1 -4 38 0
1 -4 45 0
1 -3 9 0
1 -3 10 0
1 -3 14 0
1 -3 22 0
1 -3 31 0
1 -3 32 0
1 -3 50 0
1 -2 9 0
1 -2 10 0
1 -2 11 0
1 -2 12 0
1 -2 13 0
1 -2 19 0
1 -2 38 0
1 -1 6 0
1 -1 25 0
1 -1 35 0
1 -1 40 0
1 -1 45 0
1 -1 48 0
1 1 15 0
1 1 23 0
1 1 40 0
1 1 46 0
1 2 3 0
1 2 11 0
1 2 22 0
1 2 23 0
1 2 28 0
1 2 39 0
1 2 41 0
1 3 8 0
1 3 24 0
1 3 41 0
1 3 47 0
1 4 9 0
1 4 19 0
1 4 34 0
1 4 35 0
1 4 49 0
1 4 50 0
1 5 10 0
1 5 11 0
1 5 12 0
1 5 21 0
1 5 36 0
1 5 47 0
1 5 50 0
1 6 17 0
1 6 18 0
1 6 22 0
1 6 24 0
1 6 31 0
1 6 34 0
1 6 41 0
1 7 14 0
1 7 23 0
1 7 46 0
1 7 50 0
1 8 18 0
1 8 19 0
1 8 47 0
1 9 34 0
1 9 35 0
1 10 48 0
1 11 20 0
1 11 38 0
1 11 40 0
1 11 43 0
1 12 30 0
1 12 31 0
1 12 37 0
1 12 40 0
1 13 18 0
1 13 23 0
1 13 27 0
1 13 29 0
1 13 47 0
1 14 21 0
1 14 22 0
1 14 50 0
1 15 30 0
1 16 28 0
1 16 30 0
1 16 47 0
1 16 50 0
1 17 18 0
1 17 23 0
1 17 33 0
1 17 39 0
1 18 19 0
1 18 23 0
1 18 37 0
1 18 41 0
1 19 20 0
1 19 21 0
1 19 39 0
1 19 43 0
1 20 24 0
1 20 36 0
1 20 43 0
1 20 44 0
1 20 48 0
1 20 50 0
1 21 29 0
1 21 36 0
1 21 45 0
1 22 26 0
1 22 30 0
1 22 33 0
1 22 40 0
1 22 43 0
1 23 25 0
1 23 27 0
1 23 31 0
1 24 37 0
1 25 27 0
1 25 37 0
1 25 49 0
1 26 36 0
1 26 37 0
1 26 45 0
1 27 39 0
1 27 49 0
1 28 29 0
1 28 31 0
1 28 33 0
1 28 38 0
1 29 33 0
1 29 43 0
1 29 47 0
1 30 38 0
1 30 43 0
1 30 45 0
1 31 42 0
1 32 37 0
1 32 42 0
1 32 46 0
1 33 49 0
1 34 41 0
1 34 46 0
1 35 47 0
1 36 40 0
1 36 46 0
1 37 42 0
1 37 44 0
1 38 44 0
1 38 48 0
1 40 44 0
1 42 48 0
1 43 46 0
1 43 49 0
1 44 45 0
1 45 48 0
